50
    1   204   204
    2   946   946
    3   448   448
    4   819   819
    5   654   654
    6   420   420
    7   863   863
    8   800   800
    9   928   928
   10   406   406
   11   294   294
   12   941   941
   13   801   801
   14    70    70
   15   608   608
   16   560   560
   17   769   769
   18   795   795
   19    70    70
   20   583   583
   21     8     8
   22   595   595
   23   183   183
   24   695   695
   25   696   696
   26   463   463
   27   616   616
   28   742   742
   29   561   561
   30   171   171
   31   801   801
   32   352   352
   33   481   481
   34   858   858
   35   396   396
   36   182   182
   37   997   997
   38   887   887
   39   458   458
   40   606   606
   41   737   737
   42   470   470
   43   844   844
   44   955   955
   45   656   656
   46   552   552
   47   331   331
   48   764   764
   49   465   465
   50   493   493
9664
